2 20
516 489 
0 71 73 82 91 57 44 1
1 27 25 61 68 91 72 2
2 82 79 67 58 48 26 1
3 90 92 57 47 11 21 2
4 56 65 15 8 42 46 2
5 90 95 45 49 23 99 1
6 66 66 87 93 42 86 2
7 67 77 18 15 31 80 2
8 66 66 43 33 27 73 2
9 1 3 57 58 71 43 2
10 95 89 23 27 12 96 1
11 13 16 19 27 26 81 1
12 15 9 51 60 38 85 1
13 5 5 47 44 45 95 2
14 55 50 93 84 46 92 1
15 8 2 32 24 93 78 2
16 77 74 70 61 43 18 2
17 81 85 73 80 46 85 1
18 12 14 41 37 39 9 1
19 42 47 23 14 50 96 1
